NAME : OMNETRUN
COMMENT : 524.61
TYPE : CVRP
DIMENSION : 21
EDGE_WEIGHT_TYPE : EUC_2D
CAPACITY : 21
NODE_COORD_SECTION
1 0.107093 -0.77924
2 216.816 -370.914
3 206.48 -883.017
4 172.657 -2193.81
5 184.955 -3068.68
6 181.564 -3623.92
7 162.552 -4374.45
8 337.048 -1435.22
9 253.489 -3969.49
10 463.52 -4833.47
11 510.918 -91.2512
12 543.511 -590.381
13 649.097 -1120.08
14 707.283 -1767.24
15 521.084 -2253.34
16 624.402 -2627.88
17 669.815 -3101.65
18 543.791 -3475.81
19 655.208 -3885.73
20 725.617 -4437.43
21 503.808 -5351.73
DEMAND_SECTION
1 0
2 1
3 1
4 1
5 1
6 1
7 1
8 1
9 1
10 1
11 1
12 1
13 1
14 1
15 1
16 1
17 1
18 1
19 1
20 1
21 1
DEPOT_SECTION
1
-1
EOF
